(set-logic ALL)
(declare-fun var0 () String)
(assert (str.in_re var0 (re.++ (re.+ (re.union (str.to_re "00") (str.to_re "111"))) (re.++ (re.+ (re.* (str.to_re "22"))) (re.++ (re.+ (re.* (str.to_re "33"))) (re.++ (re.* (re.* (str.to_re "444"))) (re.++ (re.* (re.union (str.to_re "5") (str.to_re "6"))) (re.++ (re.union (re.union (str.to_re "777") (str.to_re "8")) (re.* (str.to_re "99"))) (re.++ (re.* (re.union (str.to_re "aa") (str.to_re "bb"))) (re.++ (re.union (re.union (str.to_re "c") (str.to_re "ddd")) (re.union (str.to_re "ee") (str.to_re "f"))) (re.++ (re.+ (re.* (str.to_re "ggg"))) (re.+ (re.union (str.to_re "hhh") (str.to_re "i"))))))))))))))
(check-sat)